300
50 50
1 35 824
2 35 770
3 35 316
4 35 877
5 35 585
6 35 51
7 35 141
8 35 778
9 35 863
10 35 820
11 34 80
12 34 102
13 34 113
14 34 181
15 34 58
16 34 992
17 34 218
18 34 518
19 34 355
20 34 360
21 34 762
22 34 793
23 34 992
24 33 469
25 33 416
26 33 135
27 33 850
28 33 489
29 33 349
30 33 629
31 33 539
32 33 84
33 33 388
34 33 931
35 33 719
36 33 279
37 33 575
38 32 31
39 32 368
40 32 262
41 32 913
42 32 591
43 32 821
44 32 752
45 31 582
46 31 970
47 31 858
48 31 494
49 31 918
50 31 13
51 30 675
52 30 207
53 30 618
54 30 57
55 30 689
56 30 220
57 30 385
58 30 541
59 30 693
60 30 155
61 30 480
62 30 425
63 29 296
64 29 196
65 29 626
66 29 778
67 29 935
68 29 190
69 29 395
70 29 745
71 29 816
72 29 294
73 29 572
74 29 568
75 28 585
76 28 774
77 28 984
78 28 842
79 28 522
80 28 107
81 28 97
82 28 246
83 28 820
84 28 126
85 28 703
86 28 223
87 28 696
88 27 378
89 27 3
90 27 470
91 27 131
92 27 166
93 27 75
94 27 246
95 27 786
96 27 540
97 27 197
98 26 103
99 26 618
100 26 30
101 26 301
102 26 792
103 26 528
104 26 130
105 26 29
106 26 437
107 26 420
108 26 110
109 26 366
110 26 51
111 26 16
112 25 917
113 25 313
114 25 850
115 25 345
116 25 202
117 25 20
118 25 200
119 25 633
120 25 179
121 25 445
122 25 904
123 25 634
124 25 470
125 25 4
126 24 47
127 24 379
128 24 258
129 24 886
130 24 421
131 24 912
132 24 308
133 24 349
134 24 651
135 24 513
136 24 484
137 24 746
138 24 723
139 24 527
140 24 807
141 23 433
142 23 28
143 23 886
144 23 440
145 23 72
146 23 309
147 23 367
148 23 486
149 23 170
150 23 459
151 23 352
152 23 323
153 23 416
154 23 632
155 23 943
156 23 873
157 22 922
158 22 559
159 22 721
160 22 370
161 22 589
162 22 251
163 22 1
164 22 287
165 22 535
166 22 491
167 22 614
168 22 708
169 22 892
170 22 803
171 21 835
172 21 95
173 21 890
174 21 570
175 21 272
176 21 935
177 21 212
178 21 344
179 21 729
180 21 545
181 21 69
182 21 664
183 21 415
184 21 36
185 21 751
186 20 566
187 20 718
188 20 126
189 20 658
190 20 959
191 20 556
192 19 266
193 19 3
194 19 44
195 19 356
196 19 712
197 19 281
198 18 722
199 18 912
200 18 955
201 18 525
202 18 900
203 18 600
204 18 141
205 18 540
206 18 839
207 18 862
208 18 560
209 17 22
210 17 407
211 17 383
212 17 15
213 17 729
214 17 434
215 17 388
216 17 999
217 17 954
218 16 981
219 16 919
220 16 414
221 16 515
222 16 398
223 16 107
224 16 950
225 16 739
226 16 981
227 16 164
228 16 211
229 16 679
230 16 611
231 16 997
232 15 160
233 15 84
234 15 880
235 15 787
236 15 313
237 15 971
238 15 245
239 15 368
240 15 826
241 15 342
242 15 291
243 14 250
244 14 561
245 14 18
246 14 515
247 14 286
248 14 812
249 14 779
250 14 24
251 14 814
252 14 994
253 14 596
254 14 950
255 14 975
256 14 669
257 13 23
258 13 659
259 13 358
260 13 500
261 13 374
262 13 94
263 13 348
264 13 591
265 13 200
266 13 851
267 13 525
268 12 129
269 12 436
270 12 699
271 12 792
272 12 808
273 12 730
274 12 835
275 12 281
276 12 868
277 12 169
278 12 710
279 11 502
280 11 130
281 11 386
282 11 834
283 11 215
284 11 94
285 11 313
286 11 379
287 11 891
288 11 357
289 11 932
290 11 555
291 10 137
292 10 693
293 10 468
294 10 721
295 10 254
296 10 963
297 10 737
298 10 224
299 10 267
300 10 573
